\ Model _MPS_
\ LP format - for model browsing. Use MPS format to capture full model detail.
Minimize
  - t_x0 - t_x1
Subject To
 c0: - 3.99998e-06 t_x0 + t_x1 <= 2.5
 c2: 0.3999984000128 t_x0 - 1.59999e-06 t_x1 <= 0.999996
Bounds
End
